Normalized Data/p10_29_normalized_split0.vrp
NAME:p10_29_NORMALIZED_split
BEST_KNOWN: 0
COMMENT: 0
DIMENSION: 763
CAPACITY: 100
EDGE_WEIGHT_FORMAT: FUNCTION
EDGE_WEIGHT_TYPE: EXACT_2D
NODE_COORD_SECTION
1 0.00000 0.00000
2 37 16
3 37 16
4 37 16
5 37 16
6 37 16
7 -47 8
8 -47 8
9 -47 8
10 -47 8
11 -45 -31
12 -45 -31
13 -45 -31
14 -45 -31
15 45 11
16 45 11
17 45 11
18 45 11
19 -39 -42
20 -39 -42
21 -39 -42
22 -5 28
23 -5 28
24 -5 28
25 -5 28
26 7 -8
27 7 -8
28 -40 -43
29 -40 -43
30 -40 -43
31 -40 -43
32 -40 -43
33 -50 -3
34 -50 -3
35 -50 -3
36 -50 -3
37 -50 -3
38 -7 20
39 -7 20
40 -7 20
41 -7 20
42 -7 20
43 30 29
44 48 33
45 48 33
46 48 33
47 48 33
48 48 33
49 48 33
50 48 33
51 -2 35
52 -2 35
53 -2 35
54 43 7
55 43 7
56 43 7
57 17 -41
58 17 -41
59 -2 -39
60 -2 -39
61 -2 -39
62 29 2
63 29 2
64 29 2
65 -28 -17
66 -28 -17
67 -28 -17
68 -28 -17
69 -20 40
70 -20 40
71 -20 40
72 -20 40
73 18 -4
74 18 -4
75 18 -4
76 0 32
77 0 32
78 0 32
79 0 32
80 0 32
81 0 32
82 -35 -46
83 -35 -46
84 -35 -46
85 33 -25
86 33 -25
87 15 43
88 15 43
89 15 43
90 15 43
91 15 43
92 15 43
93 15 43
94 -17 -26
95 -17 -26
96 -17 -26
97 -24 -28
98 -24 -28
99 -41 -28
100 -41 -28
101 -41 -28
102 -41 -28
103 -41 -28
104 49 -2
105 49 -2
106 49 -2
107 -3 1
108 -3 1
109 -3 1
110 -3 1
111 -3 1
112 -3 1
113 -24 49
114 -24 49
115 -24 49
116 -23 -44
117 -23 -44
118 -23 -44
119 -23 -44
120 -23 -44
121 -23 -44
122 42 29
123 42 29
124 42 29
125 42 29
126 -36 14
127 -36 14
128 -36 14
129 -36 14
130 -36 14
131 -9 -41
132 -9 -41
133 -9 -41
134 -9 -41
135 7 -39
136 7 -39
137 33 44
138 33 44
139 33 44
140 33 44
141 7 -40
142 -36 -32
143 -36 -32
144 -36 -32
145 49 -32
146 49 -32
147 49 -32
148 49 -32
149 49 -32
150 49 -32
151 -29 -50
152 -29 -50
153 -29 -50
154 -29 -50
155 5 -35
156 5 -35
157 5 -35
158 5 -35
159 5 -35
160 5 -35
161 10 -50
162 10 -50
163 10 -50
164 -6 -20
165 -6 -20
166 -6 -20
167 -6 -20
168 -6 -20
169 -6 -20
170 31 -43
171 31 -43
172 31 -43
173 -43 -18
174 -43 -18
175 -43 -18
176 -18 15
177 -18 15
178 -18 15
179 37 -31
180 37 -31
181 28 37
182 28 37
183 35 49
184 35 49
185 35 49
186 35 49
187 35 49
188 19 0
189 19 0
190 19 0
191 1 15
192 1 15
193 1 15
194 1 15
195 1 15
196 1 15
197 37 -19
198 37 -19
199 37 -19
200 -25 28
201 -25 28
202 -25 28
203 -38 10
204 -38 10
205 33 6
206 33 6
207 33 6
208 33 6
209 30 3
210 1 40
211 1 40
212 1 40
213 1 40
214 1 40
215 1 40
216 20 6
217 20 6
218 20 6
219 20 6
220 34 -8
221 34 -8
222 49 -4
223 49 -4
224 49 -4
225 49 -4
226 49 -4
227 49 -4
228 -42 6
229 -42 6
230 -42 6
231 -42 6
232 20 -10
233 20 -10
234 20 -10
235 20 -10
236 -4 45
237 -4 45
238 -4 45
239 41 43
240 41 43
241 36 41
242 36 41
243 36 41
244 36 41
245 36 41
246 36 41
247 -19 7
248 -19 7
249 -19 7
250 -19 7
251 27 -20
252 27 -20
253 27 -20
254 27 -20
255 27 -20
256 27 -20
257 4 44
258 4 44
259 4 44
260 -41 -49
261 -41 -49
262 -41 -49
263 -41 -49
264 -41 -49
265 45 -2
266 45 -2
267 45 -2
268 24 -25
269 24 -25
270 24 -25
271 24 -25
272 24 -25
273 17 14
274 17 14
275 17 14
276 7 12
277 7 12
278 7 12
279 -19 16
280 -19 16
281 -19 16
282 35 41
283 35 41
284 35 41
285 35 41
286 35 41
287 35 41
288 -2 42
289 -2 42
290 -2 42
291 -39 -35
292 -39 -35
293 -39 -35
294 -39 -35
295 -39 -35
296 24 -1
297 24 -1
298 24 -1
299 24 -1
300 24 -1
301 -50 30
302 -50 30
303 -50 30
304 -50 30
305 -50 30
306 24 -46
307 24 -46
308 24 -46
309 24 -46
310 24 -46
311 24 -46
312 -34 -48
313 -34 -48
314 -34 -48
315 -34 -48
316 -34 -48
317 -37 -42
318 2 2
319 2 2
320 2 2
321 2 2
322 2 21
323 2 21
324 2 21
325 2 21
326 36 41
327 36 41
328 36 41
329 6 -10
330 6 -10
331 6 -10
332 6 -10
333 -25 21
334 -25 21
335 -25 21
336 -25 21
337 -25 21
338 -25 21
339 38 13
340 38 13
341 38 13
342 38 13
343 38 13
344 -42 -26
345 -42 -26
346 -42 -26
347 8 16
348 8 16
349 8 16
350 8 16
351 8 16
352 3 -33
353 3 -33
354 3 -33
355 3 -33
356 3 -33
357 19 32
358 19 32
359 -11 41
360 -38 -23
361 -38 -23
362 -38 -23
363 48 35
364 48 35
365 48 35
366 48 35
367 48 35
368 -18 10
369 -18 10
370 -18 10
371 8 27
372 8 27
373 8 27
374 8 27
375 8 27
376 -17 12
377 -17 12
378 -17 12
379 -17 12
380 -18 2
381 -18 2
382 27 0
383 27 0
384 27 0
385 44 6
386 44 6
387 44 6
388 44 6
389 44 6
390 48 -25
391 27 8
392 27 8
393 -40 29
394 -40 29
395 -40 29
396 46 16
397 46 16
398 46 16
399 9 -32
400 9 -32
401 -23 40
402 -23 40
403 -23 40
404 -23 40
405 -23 40
406 -23 40
407 -15 30
408 -15 30
409 -15 30
410 -15 30
411 0 48
412 0 48
413 0 48
414 -37 15
415 -37 15
416 -37 15
417 -37 15
418 -37 15
419 -37 15
420 44 -16
421 44 -16
422 44 -16
423 44 -16
424 28 39
425 28 39
426 28 39
427 28 39
428 50 -40
429 50 -40
430 9 26
431 9 26
432 42 -39
433 42 -39
434 42 -39
435 42 -39
436 42 -39
437 3 8
438 3 8
439 3 8
440 3 8
441 4 6
442 4 6
443 4 6
444 4 6
445 -41 -13
446 -41 -13
447 -41 -13
448 -41 -13
449 38 28
450 38 28
451 38 28
452 38 28
453 39 31
454 39 31
455 39 31
456 25 -7
457 25 -7
458 25 -7
459 25 -7
460 49 -27
461 49 -27
462 49 -27
463 49 -27
464 49 -27
465 -3 -40
466 -3 -40
467 -3 -40
468 -3 -40
469 -3 -40
470 -3 -40
471 -3 -40
472 -24 -47
473 -24 -47
474 -24 -47
475 -24 -47
476 -24 -47
477 -24 -47
478 -25 13
479 -25 13
480 -25 13
481 -25 13
482 4 31
483 4 31
484 4 31
485 4 31
486 -16 -18
487 -16 -18
488 -16 -18
489 -16 -18
490 40 -24
491 40 -24
492 0 50
493 0 50
494 42 31
495 42 31
496 42 31
497 42 31
498 42 31
499 -21 43
500 -21 43
501 -21 43
502 -21 43
503 -21 43
504 31 17
505 31 17
506 -41 46
507 -41 46
508 22 32
509 22 32
510 22 32
511 -48 -30
512 -48 -30
513 -48 -30
514 38 -23
515 21 15
516 21 15
517 21 15
518 21 15
519 21 15
520 20 -16
521 20 -16
522 20 -16
523 20 -16
524 20 -16
525 20 -16
526 22 -5
527 22 -5
528 22 -5
529 22 -5
530 -50 31
531 -50 31
532 -50 31
533 -50 31
534 -50 31
535 -50 31
536 -36 -33
537 -36 -33
538 -36 -33
539 -36 -33
540 -7 -24
541 -7 -24
542 -7 -24
543 -7 -24
544 -7 -24
545 -7 -17
546 -7 -17
547 -7 -17
548 -7 -17
549 -11 12
550 -11 12
551 -11 12
552 -11 12
553 0 -9
554 0 -9
555 0 -9
556 37 39
557 37 39
558 37 39
559 50 -47
560 50 -47
561 50 -47
562 37 -23
563 37 -23
564 37 -23
565 -22 3
566 -22 3
567 -22 3
568 -22 3
569 -22 3
570 1 2
571 1 2
572 1 2
573 1 2
574 1 2
575 26 -29
576 26 -29
577 26 -29
578 26 -29
579 26 -29
580 26 -29
581 -22 29
582 -22 29
583 -22 29
584 -33 -25
585 -33 -25
586 -33 -25
587 43 36
588 43 36
589 43 36
590 43 36
591 43 36
592 21 -12
593 21 -12
594 21 -12
595 21 -12
596 21 -12
597 30 -24
598 30 -24
599 30 -24
600 42 -20
601 42 -20
602 42 -20
603 42 -20
604 -15 -12
605 -15 -12
606 19 4
607 19 4
608 19 4
609 19 4
610 47 -30
611 47 -30
612 47 -30
613 47 -30
614 47 -30
615 3 35
616 3 35
617 3 35
618 3 35
619 3 35
620 4 26
621 4 26
622 4 26
623 4 26
624 47 5
625 47 5
626 47 5
627 47 5
628 47 5
629 47 5
630 1 14
631 1 14
632 1 14
633 9 3
634 9 3
635 9 3
636 9 3
637 9 3
638 -44 23
639 -44 23
640 -44 23
641 20 -20
642 -22 16
643 -22 16
644 -22 16
645 33 15
646 33 15
647 33 15
648 33 15
649 4 -14
650 4 -14
651 4 -14
652 4 -14
653 4 -14
654 4 -14
655 18 25
656 18 25
657 18 25
658 18 25
659 18 25
660 18 25
661 -40 -37
662 -40 -37
663 -40 -37
664 31 32
665 31 32
666 -11 30
667 -11 30
668 13 2
669 13 2
670 13 2
671 13 2
672 13 2
673 9 -25
674 9 -25
675 9 -25
676 9 -25
677 39 1
678 39 1
679 39 1
680 39 1
681 39 1
682 39 1
683 27 -29
684 27 -29
685 27 -29
686 27 -29
687 27 -29
688 -33 -46
689 -33 -46
690 -33 -46
691 -33 -46
692 24 -50
693 24 -50
694 24 -50
695 24 -50
696 24 -50
697 -45 -9
698 -45 -9
699 -45 -9
700 49 -50
701 49 -50
702 49 -50
703 49 -50
704 29 -23
705 29 -23
706 29 -23
707 29 -23
708 29 -23
709 10 20
710 10 20
711 10 20
712 10 20
713 18 19
714 18 19
715 18 19
716 -23 -35
717 -23 -35
718 -23 -35
719 -33 -19
720 27 -2
721 27 -2
722 27 -2
723 -1 -9
724 -29 41
725 -29 41
726 -29 41
727 -29 41
728 -29 41
729 -29 41
730 -33 49
731 -33 49
732 -33 49
733 -33 49
734 -33 49
735 -33 49
736 -50 -9
737 -50 -9
738 -50 -9
739 -14 -11
740 -14 -11
741 41 -1
742 41 -1
743 41 -1
744 41 -1
745 42 -30
746 42 -30
747 43 15
748 43 15
749 43 15
750 43 15
751 43 15
752 43 15
753 -41 50
754 -41 50
755 -41 50
756 4 6
757 4 6
758 4 6
759 10 13
760 10 13
761 10 13
762 10 13
763 10 13
DEMAND_SECTION
1 0
2 20
3 10
4 1
5 1
6 1
7 20
8 10
9 5
10 1
11 20
12 5
13 1
14 1
15 20
16 10
17 5
18 1
19 20
20 10
21 5
22 20
23 5
24 1
25 1
26 10
27 5
28 20
29 10
30 1
31 1
32 1
33 20
34 10
35 1
36 1
37 1
38 20
39 5
40 1
41 1
42 1
43 20
44 20
45 10
46 5
47 1
48 1
49 1
50 1
51 10
52 5
53 1
54 10
55 1
56 1
57 20
58 20
59 20
60 5
61 1
62 20
63 20
64 5
65 10
66 1
67 1
68 1
69 20
70 10
71 1
72 1
73 20
74 1
75 1
76 10
77 5
78 1
79 1
80 1
81 1
82 20
83 1
84 1
85 10
86 5
87 20
88 10
89 5
90 1
91 1
92 1
93 1
94 20
95 20
96 5
97 20
98 10
99 20
100 10
101 5
102 1
103 1
104 20
105 20
106 1
107 20
108 10
109 5
110 1
111 1
112 1
113 10
114 1
115 1
116 20
117 20
118 5
119 1
120 1
121 1
122 20
123 20
124 5
125 1
126 20
127 20
128 1
129 1
130 1
131 20
132 10
133 1
134 1
135 20
136 20
137 20
138 10
139 1
140 1
141 20
142 10
143 5
144 1
145 20
146 20
147 5
148 1
149 1
150 1
151 20
152 20
153 1
154 1
155 20
156 20
157 1
158 1
159 1
160 1
161 20
162 1
163 1
164 10
165 5
166 1
167 1
168 1
169 1
170 20
171 1
172 1
173 10
174 5
175 1
176 20
177 5
178 1
179 20
180 10
181 20
182 1
183 10
184 1
185 1
186 1
187 1
188 20
189 10
190 1
191 10
192 5
193 1
194 1
195 1
196 1
197 20
198 5
199 1
200 20
201 5
202 1
203 20
204 5
205 10
206 1
207 1
208 1
209 20
210 10
211 5
212 1
213 1
214 1
215 1
216 20
217 10
218 1
219 1
220 20
221 10
222 20
223 20
224 1
225 1
226 1
227 1
228 10
229 5
230 1
231 1
232 20
233 10
234 5
235 1
236 20
237 1
238 1
239 10
240 5
241 20
242 20
243 1
244 1
245 1
246 1
247 10
248 5
249 1
250 1
251 20
252 20
253 5
254 1
255 1
256 1
257 20
258 5
259 1
260 20
261 5
262 1
263 1
264 1
265 20
266 20
267 5
268 20
269 20
270 5
271 1
272 1
273 20
274 20
275 1
276 20
277 10
278 1
279 20
280 20
281 1
282 10
283 5
284 1
285 1
286 1
287 1
288 10
289 5
290 1
291 20
292 5
293 1
294 1
295 1
296 20
297 10
298 1
299 1
300 1
301 20
302 20
303 5
304 1
305 1
306 20
307 10
308 5
309 1
310 1
311 1
312 20
313 5
314 1
315 1
316 1
317 20
318 20
319 10
320 1
321 1
322 20
323 20
324 1
325 1
326 10
327 5
328 1
329 20
330 5
331 1
332 1
333 20
334 10
335 5
336 1
337 1
338 1
339 10
340 1
341 1
342 1
343 1
344 20
345 10
346 1
347 20
348 5
349 1
350 1
351 1
352 20
353 10
354 1
355 1
356 1
357 20
358 20
359 20
360 20
361 20
362 1
363 20
364 5
365 1
366 1
367 1
368 20
369 20
370 5
371 20
372 10
373 5
374 1
375 1
376 20
377 20
378 1
379 1
380 20
381 5
382 20
383 10
384 1
385 10
386 5
387 1
388 1
389 1
390 20
391 20
392 10
393 20
394 20
395 10
396 20
397 20
398 1
399 20
400 20
401 20
402 5
403 1
404 1
405 1
406 1
407 20
408 1
409 1
410 1
411 20
412 5
413 1
414 20
415 5
416 1
417 1
418 1
419 1
420 20
421 10
422 1
423 1
424 10
425 5
426 1
427 1
428 20
429 1
430 20
431 10
432 20
433 20
434 1
435 1
436 1
437 20
438 20
439 5
440 1
441 20
442 1
443 1
444 1
445 20
446 10
447 1
448 1
449 20
450 1
451 1
452 1
453 20
454 20
455 5
456 20
457 10
458 1
459 1
460 20
461 10
462 1
463 1
464 1
465 20
466 20
467 5
468 1
469 1
470 1
471 1
472 20
473 5
474 1
475 1
476 1
477 1
478 20
479 20
480 5
481 1
482 20
483 5
484 1
485 1
486 20
487 10
488 1
489 1
490 20
491 20
492 20
493 1
494 20
495 20
496 1
497 1
498 1
499 10
500 5
501 1
502 1
503 1
504 20
505 5
506 20
507 20
508 20
509 10
510 1
511 20
512 20
513 5
514 20
515 20
516 10
517 1
518 1
519 1
520 20
521 20
522 5
523 1
524 1
525 1
526 20
527 5
528 1
529 1
530 20
531 10
532 5
533 1
534 1
535 1
536 20
537 10
538 1
539 1
540 10
541 5
542 1
543 1
544 1
545 10
546 5
547 1
548 1
549 20
550 10
551 5
552 1
553 10
554 5
555 1
556 20
557 1
558 1
559 20
560 10
561 5
562 20
563 20
564 1
565 20
566 20
567 1
568 1
569 1
570 10
571 1
572 1
573 1
574 1
575 10
576 5
577 1
578 1
579 1
580 1
581 20
582 20
583 5
584 10
585 5
586 1
587 10
588 1
589 1
590 1
591 1
592 10
593 1
594 1
595 1
596 1
597 10
598 5
599 1
600 20
601 5
602 1
603 1
604 20
605 1
606 20
607 5
608 1
609 1
610 20
611 10
612 5
613 1
614 1
615 20
616 20
617 1
618 1
619 1
620 20
621 10
622 1
623 1
624 10
625 5
626 1
627 1
628 1
629 1
630 20
631 10
632 5
633 10
634 1
635 1
636 1
637 1
638 20
639 20
640 5
641 20
642 10
643 5
644 1
645 10
646 5
647 1
648 1
649 20
650 10
651 5
652 1
653 1
654 1
655 20
656 10
657 1
658 1
659 1
660 1
661 20
662 5
663 1
664 20
665 1
666 10
667 5
668 20
669 1
670 1
671 1
672 1
673 10
674 1
675 1
676 1
677 20
678 10
679 5
680 1
681 1
682 1
683 10
684 5
685 1
686 1
687 1
688 20
689 10
690 5
691 1
692 20
693 5
694 1
695 1
696 1
697 20
698 5
699 1
700 20
701 10
702 5
703 1
704 20
705 20
706 1
707 1
708 1
709 20
710 10
711 1
712 1
713 20
714 20
715 1
716 20
717 5
718 1
719 20
720 20
721 1
722 1
723 20
724 20
725 20
726 1
727 1
728 1
729 1
730 20
731 10
732 1
733 1
734 1
735 1
736 20
737 20
738 5
739 10
740 5
741 20
742 1
743 1
744 1
745 20
746 1
747 20
748 5
749 1
750 1
751 1
752 1
753 10
754 5
755 1
756 10
757 5
758 1
759 10
760 1
761 1
762 1
763 1
DEPOT_SECTION
1
-1
EOF