Normalized Data/p10_29_normalized_split0.sol
762 -3 5 2 397 395 396 750 751 746 748 747 749 338 341 339 342 340 634 636 633 635 -16 17 14 15 625 626 624 627 623 628 388 387 384 386 385 53 55 54 206 207 204 205 -22 23 358 498 499 502 500 501 113 112 114 726 727 724 723 725 728 -26 25 329 328 649 648 650 652 552 553 554 -32 35 33 34 36 736 737 735 698 696 -37 38 41 620 621 622 619 321 324 323 322 -40 39 24 21 75 615 614 482 481 484 483 -42 493 494 121 122 -52 51 50 212 213 209 210 258 256 257 92 88 91 90 87 89 86 -57 56 305 306 307 160 161 162 651 653 -58 59 60 467 469 464 466 468 465 470 541 539 540 543 542 164 -61 62 208 390 391 606 608 -63 103 105 104 224 221 223 222 226 225 266 741 742 -64 142 143 141 294 292 290 293 291 662 661 660 535 -67 66 65 361 360 359 174 173 172 447 446 444 445 697 -73 74 72 525 526 528 527 455 231 232 -78 77 80 79 76 289 287 288 236 237 235 492 491 411 410 412 214 211 618 616 617 -83 81 82 262 259 261 260 263 312 315 313 311 314 690 689 688 95 -101 99 511 512 510 11 12 13 10 584 585 583 -106 109 107 111 108 110 -119 117 118 120 473 471 474 472 475 476 152 150 151 153 687 -129 128 126 127 125 418 414 417 413 416 415 479 480 477 -133 130 132 131 116 115 715 716 717 -135 134 140 398 399 -167 165 166 168 163 93 94 97 96 487 486 488 -181 180 285 282 283 286 281 284 240 327 244 243 326 241 245 325 242 -187 607 605 217 216 218 215 667 669 670 668 671 -189 188 382 383 381 720 719 721 297 295 299 296 298 -197 196 198 489 490 513 594 592 593 595 591 -230 228 227 229 9 8 6 7 202 203 478 -233 234 254 252 251 250 521 524 520 523 522 519 -249 248 247 246 566 565 568 567 564 380 379 -255 253 85 84 178 179 170 169 171 695 692 693 691 694 308 310 309 -269 433 434 702 700 701 699 559 558 560 427 428 745 -272 274 273 713 712 714 758 761 759 762 760 -316 30 27 28 29 31 20 19 18 538 537 536 -317 318 320 319 -330 331 674 675 672 673 157 155 156 158 159 154 352 353 351 355 354 -332 333 200 199 582 580 581 -334 336 337 335 201 506 505 754 752 753 731 734 733 730 729 732 -350 347 346 349 348 277 276 275 755 756 757 440 442 443 441 -357 356 509 507 508 654 657 659 658 656 -369 367 368 376 548 551 549 -370 371 374 372 373 429 430 708 710 709 711 -375 377 378 278 280 279 176 177 175 550 -407 409 406 408 402 403 404 401 400 405 68 69 71 70 666 665 -424 423 426 425 139 137 138 136 184 183 182 185 186 238 239 556 557 555 -431 435 432 146 144 148 147 145 149 610 612 -438 439 437 436 193 194 190 195 192 191 630 629 631 -451 448 449 450 452 453 454 664 663 655 -457 458 456 219 220 420 422 421 419 601 599 600 -485 100 102 98 343 344 345 718 -518 515 517 516 514 503 504 1 4 645 647 646 644 -562 561 563 598 596 597 707 703 704 706 705 -569 570 572 573 -571 -578 575 577 579 574 576 685 682 686 683 684 271 267 270 268 640 -588 587 589 586 590 366 362 364 363 365 44 45 47 48 46 49 43 496 497 495 123 124 632 -602 389 460 461 463 462 459 613 611 609 744 -637 638 394 392 393 641 -639 302 300 304 301 303 532 529 533 530 531 534 642 643 -677 676 678 680 679 681 264 265 740 743 -722 544 546 547 545 604 603 739 738 0 





OBJ=
5342.810
BEST_KNOWN=
0.000